Instance name: /home/orlab/CLionProjects/RV-FSTSP/Murray_instances/FSTSP/FSTSP_10_customer_problems/20140810T123443v11
Write arg val: 1
Input is specified as type M: Murray instance.-.-.-.-.-.-.-.-.-.-.-.-.-.-.-.-.-.-.-.-

drone speed: 0.6 miles/minute
uav non-eligible customer: 4 8 
Printing tau:
0 13.7617 11.155 18.3489 20.448 15.6899 15.6816 15.9793 10.6796 13.1667 9.91531 0 
13.7617 0 8.59672 16.5872 14.8463 1.92825 1.9199 7.49765 3.32128 11.405 7.04299 13.7617 
11.155 8.59672 0 25.184 23.443 8.42508 9.39342 16.0944 11.7546 20.0018 15.6397 11.155 
18.3489 16.5872 25.184 0 20.0769 16.7589 15.7905 15.6083 13.4294 5.1822 10.0243 18.3489 
20.448 14.8463 23.443 20.0769 0 15.0179 14.0496 7.34864 11.6884 17.2947 10.5327 20.448 
15.6899 1.92825 8.42508 16.7589 15.0179 0 0.968346 7.66929 5.01036 12.5367 7.21463 15.6899 
15.6816 1.9199 9.39342 15.7905 14.0496 0.968346 0 6.70095 5.00201 12.5283 6.24629 15.6816 
15.9793 7.49765 16.0944 15.6083 7.34864 7.66929 6.70095 0 5.29976 12.8261 6.06403 15.9793 
10.6796 3.32128 11.7546 13.4294 11.6884 5.01036 5.00201 5.29976 0 8.24716 3.8851 10.6796 
13.1667 11.405 20.0018 5.1822 17.2947 12.5367 12.5283 12.8261 8.24716 0 6.76206 13.1667 
9.91531 7.04299 15.6397 10.0243 10.5327 7.21463 6.24629 6.06403 3.8851 6.76206 0 9.91531 
0 0 0 0 0 0 0 0 0 0 0 0 
Printing tau_prime:
0 7.00743 6.60767 9.26951 13.3051 7.96521 8.02512 9.32786 5.9388 6.83826 6.69747 0 
7.00743 0 4.53721 10.7671 8.22389 0.977764 1.04987 3.94906 2.22874 7.86711 4.05316 7.00743 
6.60767 4.53721 0 13.8369 12.7369 4.83259 5.26653 8.48623 5.94183 10.8808 7.92402 6.60767 
9.26951 10.7671 13.8369 0 10.1784 11.4679 11.1089 9.12274 8.55077 2.97077 6.81733 9.26951 
13.3051 8.22389 12.7369 10.1784 0 7.95679 7.49335 4.34398 7.69376 8.9064 6.62071 13.3051 
7.96521 0.977764 4.83259 11.4679 7.95679 0 0.489107 3.87634 3.03842 8.61874 4.66744 7.96521 
8.02512 1.04987 5.26653 11.1089 7.49335 0.489107 0 3.38783 2.79373 8.29151 4.29363 8.02512 
9.32786 3.94906 8.48623 9.12274 4.34398 3.87634 3.38783 0 3.45972 6.7721 3.0714 9.32786 
5.9388 2.22874 5.94183 8.55077 7.69376 3.03842 2.79373 3.45972 0 5.63927 1.99988 5.9388 
6.83826 7.86711 10.8808 2.97077 8.9064 8.61874 8.29151 6.7721 5.63927 0 4.06431 6.83826 
6.69747 4.05316 7.92402 6.81733 6.62071 4.66744 4.29363 3.0714 1.99988 4.06431 0 6.69747 
0 0 0 0 0 0 0 0 0 0 0 0 
---------------------------------------------------------------
Current config:
- Number of threads = 16
- Drone endurance = 20
- SL = 1
- SR = 1
- L = 2
- Allow loop = 0
- Use TSP optimal solution as warmstart: = 0
- Use cutting plane method: = 0
- Use CPLEX conflict refiner: = 0
---------------------------------------------------------------
M value: 627.671
Warning:  Output names have been modified due to duplicate names or characters invalid in LP format.
Version identifier: 22.1.1.0 | 2022-11-28 | 9160aff4d
CPXPARAM_Threads                                 16
CPXPARAM_TimeLimit                               3600
Tried aggregator 2 times.
MIP Presolve eliminated 1031 rows and 429 columns.
MIP Presolve modified 2694 coefficients.
Aggregator did 34 substitutions.
Reduced MIP has 3967 rows, 2981 columns, and 84108 nonzeros.
Reduced MIP has 2805 binaries, 0 generals, 0 SOSs, and 0 indicators.
Presolve time = 0.06 sec. (111.72 ticks)
Probing time = 0.01 sec. (9.78 ticks)
Tried aggregator 1 time.
Detecting symmetries...
MIP Presolve eliminated 1 rows and 0 columns.
MIP Presolve modified 24 coefficients.
Reduced MIP has 3966 rows, 2981 columns, and 84074 nonzeros.
Reduced MIP has 2805 binaries, 0 generals, 0 SOSs, and 0 indicators.
Presolve time = 0.03 sec. (46.14 ticks)
Probing time = 0.01 sec. (9.23 ticks)
Clique table members: 40417.
MIP emphasis: balance optimality and feasibility.
MIP search method: dynamic search.
Parallel mode: deterministic, using up to 16 threads.
Root relaxation solution time = 0.15 sec. (291.33 ticks)

        Nodes                                         Cuts/
   Node  Left     Objective  IInf  Best Integer    Best Bound    ItCnt     Gap

*     0+    0                        46444.3397        0.0000           100.00%
      0     0       32.8399   231    46444.3397       32.8399     3192   99.93%
*     0+    0                          121.3612       32.8399            72.94%
      0     0       45.0166   203      121.3612      Cuts: 50     9026   62.91%
*     0+    0                          103.2323       45.0166            56.39%
      0     0       45.2993   213      103.2323     Cuts: 186    10737   56.12%
*     0+    0                           87.5871       45.2993            48.28%
      0     0       45.9874   213       87.5871     Cuts: 193    13252   47.50%
*     0+    0                           83.1039       45.9874            44.66%
*     0+    0                           73.6033       45.9874            37.52%
      0     0       46.0254   221       73.6033     Cuts: 191    17935   37.47%
      0     0       46.5875   181       73.6033     Cuts: 176    22254   36.70%
Detecting symmetries...
      0     0       48.7760   126       73.6033     Cuts: 112    24248   33.73%
*     0+    0                           73.3642       48.7760            33.52%
*     0+    0                           62.3222       48.7760            21.74%
      0     0       48.7760   120       62.3222     Cuts: 106    25127   21.74%
      0     0       48.7760   107       62.3222       Cuts: 3    26540   21.74%
      0     0       48.7760   104       62.3222      Cuts: 84    27621   21.74%
*     0+    0                           59.2684       48.7760            17.70%
*     0+    0                           52.0423       48.7760             6.28%
Detecting symmetries...

Repeating presolve.
Tried aggregator 2 times.
MIP Presolve eliminated 436 rows and 936 columns.
MIP Presolve modified 1584 coefficients.
Aggregator did 14 substitutions.
Reduced MIP has 3496 rows, 2031 columns, and 37462 nonzeros.
Reduced MIP has 1855 binaries, 0 generals, 0 SOSs, and 0 indicators.
Presolve time = 0.03 sec. (56.04 ticks)
Probing fixed 53 vars, tightened 0 bounds.
Probing changed sense of 3 constraints.
Probing time = 0.03 sec. (48.96 ticks)
Tried aggregator 2 times.
MIP Presolve eliminated 108 rows and 64 columns.
MIP Presolve modified 50 coefficients.
Aggregator did 1 substitutions.
Reduced MIP has 3387 rows, 1966 columns, and 34211 nonzeros.
Reduced MIP has 1795 binaries, 0 generals, 0 SOSs, and 0 indicators.
Presolve time = 0.03 sec. (47.21 ticks)
Probing time = 0.01 sec. (6.62 ticks)
Tried aggregator 1 time.
Detecting symmetries...
Reduced MIP has 3387 rows, 1966 columns, and 34211 nonzeros.
Reduced MIP has 1795 binaries, 0 generals, 0 SOSs, and 0 indicators.
Presolve time = 0.01 sec. (20.87 ticks)
Represolve time = 0.13 sec. (220.96 ticks)
Probing time = 0.00 sec. (6.62 ticks)
Clique table members: 27791.
MIP emphasis: balance optimality and feasibility.
MIP search method: dynamic search.
Parallel mode: deterministic, using up to 16 threads.
Root relaxation solution time = 0.16 sec. (255.11 ticks)

        Nodes                                         Cuts/
   Node  Left     Objective  IInf  Best Integer    Best Bound    ItCnt     Gap

*     0+    0                           52.0423       48.7760             6.28%
      0     0       48.7760   121       52.0423       48.7760    30273    6.28%
      0     0       48.7760   137       52.0423     Cuts: 145    30880    6.28%
      0     0       48.7760    83       52.0423       Cuts: 7    31770    6.28%
      0     0       48.7760   117       52.0423     Cuts: 109    32325    6.28%
*     0+    0                           51.6086       48.7760             5.49%
Detecting symmetries...
      0     2       48.7760    87       51.6086       48.7760    32327    5.49%
Elapsed time = 6.59 sec. (12729.69 ticks, tree = 0.02 MB, solutions = 11)
      1     3       48.7760   115       51.6086       48.7760    34563    5.49%
      8    10       48.7937    86       51.6086       48.7760    40584    5.49%
    108    32        cutoff             51.6086       48.7760    57072    5.49%
    183    50       48.8591    87       51.6086       48.7760    84454    5.49%
    357   131       48.7815   121       51.6086       48.7760   120085    5.49%
    458   190    infeasible             51.6086       48.7760   156243    5.49%
*   510+  193                           51.2116       48.7760             4.76%
    550   191       49.0528    72       51.2116       48.7760   179086    4.76%
    733   216       48.7760    66       51.2116       48.7760   209663    4.76%
    839   235       48.7760    57       51.2116       48.7760   234599    4.76%
   1416   275        cutoff             51.2116       48.7760   357671    4.76%
Elapsed time = 10.11 sec. (15998.18 ticks, tree = 0.78 MB, solutions = 12)
   2449    50        cutoff             51.2116       48.7760   510851    4.76%
   2622     6       49.3841   149       51.2116       48.7760   560785    4.76%
   2678    11       48.9422   110       51.2116       48.7760   571425    4.76%

GUB cover cuts applied:  44
Clique cuts applied:  1
Cover cuts applied:  138
Implied bound cuts applied:  623
Flow cuts applied:  16
Mixed integer rounding cuts applied:  84
Zero-half cuts applied:  45
Lift and project cuts applied:  2
Gomory fractional cuts applied:  3

Root node processing (before b&c):
  Real time             =    6.55 sec. (12658.24 ticks)
Parallel b&c, 16 threads:
  Real time             =    5.77 sec. (6405.55 ticks)
  Sync time (average)   =    2.96 sec.
  Wait time (average)   =    0.00 sec.
                          ------------
Total (root+branch&cut) =   12.32 sec. (19063.79 ticks)
Feasible solution found!
Truck nodes:
Truck at node 0 at stage 1
Truck at node 8 at stage 2
Truck at node 7 at stage 3
Truck at node 4 at stage 4
Truck at node 10 at stage 5
Truck at node 11 at stage 6

Truck arcs:
Arc 1 connecting 0 and 8 with cost 10.6796 
Arc 2 connecting 8 and 7 with cost 5.29976 
Arc 3 connecting 7 and 4 with cost 7.34864 
Arc 4 connecting 4 and 10 with cost 10.5327 
Arc 5 connecting 10 and 11 with cost 9.91531 
Truck route length: 43.776
Customer 1 was served by drone!
Customer 2 was served by drone!
Customer 3 was served by drone!
Customer 5 was served by drone!
Customer 6 was served by drone!
Customer 9 was served by drone!
served customer 2 with st stage 1
start from stage 1 at node 0
end at node 7
end at stage 3
served customer 5 with st stage 1
start from stage 1 at node 0
end at node 7
end at stage 3
served customer 3 with st stage 3
start from stage 3 at node 7
end at node 10
end at stage 5
served customer 9 with st stage 3
start from stage 3 at node 7
end at node 10
end at stage 5
served customer 1 with st stage 5
start from stage 5 at node 10
end at node 11
end at stage 6
served customer 6 with st stage 5
start from stage 5 at node 10
end at node 11
end at stage 6
Printing wait:
wait[5][6]== 2.43562
Printing z(k, k') and drone travel time: 
---------------------------------------------------------------
Sortie starts at stage 1 and ends at stage 3
Start node: 0
End node: 7
Customer served in this sortie:2 5 
Drone arcs during this sortie:
0-->2, l = 6.60767
2-->5, l = 4.83259
5-->7, l = 3.87634
Truck arcs during this sortie:
0---8, l = 10.6796
8---7, l = 5.29976
Drone travel time during sortie: 15.3166
Truck travel time during sortie: 15.9793
Wait time for this sortie: 0
---------------------------------------------------------------
---------------------------------------------------------------
Sortie starts at stage 3 and ends at stage 5
Start node: 7
End node: 10
Customer served in this sortie:3 9 
Drone arcs during this sortie:
3-->10, l = 6.81733
7-->9, l = 6.7721
9-->3, l = 2.97077
Truck arcs during this sortie:
7---4, l = 7.34864
4---10, l = 10.5327
Drone travel time during sortie: 16.5602
Truck travel time during sortie: 17.8813
Wait time for this sortie: 0
---------------------------------------------------------------
---------------------------------------------------------------
Sortie starts at stage 5 and ends at stage 6
Start node: 10
End node: 11
Customer served in this sortie:1 6 
Drone arcs during this sortie:
1-->11, l = 7.00743
6-->1, l = 1.04987
10-->6, l = 4.29363
Truck arcs during this sortie:
10---11, l = 9.91531
Drone travel time during sortie: 12.3509
Truck travel time during sortie: 9.91531
Wait time for this sortie: 2.43562
---------------------------------------------------------------
Printing zl:
zl[1][0] = 1
zl[3][7] = 1
zl[5][10] = 1
Printing zr:
zr[1][7] = 1
zr[3][10] = 1
zr[5][11] = 1
Printing zs:
zs[1][2] = 1
zs[1][5] = 1
zs[3][3] = 1
zs[3][9] = 1
zs[5][1] = 1
zs[5][6] = 1
Printing x_d:
x_d[0][2] = 1
x_d[1][11] = 1
x_d[2][5] = 1
x_d[3][10] = 1
x_d[5][7] = 1
x_d[6][1] = 1
x_d[7][9] = 1
x_d[9][3] = 1
x_d[10][6] = 1
Done!
Solve time: 12.323
OBJECTIVE VALUE: 51.2116.
In write mode
